NAME : XML100_3332_05
DIMENSION : 101
NB_CLUSTERS : 4
CLUSTERING_ALG : KMeans
CLUSTERING_PARAMS : k(3)
CLUSTERS
1 0
2 2 3 4 5 7 10 11 12 14 17 21 25 26 30 31 38 39 42 45 47 51 53 54 57 60 61 62 63 64 65 68 69 70 71 72 73 78 79 82 83 85 89 92 93 96 99 100
3 1 6 9 13 15 19 20 27 28 29 32 33 35 36 37 40 46 50 52 55 56 58 66 67 74 75 76 77 80 81 84 86 88 90 91 94 95 97
4 8 16 18 22 23 24 34 41 43 44 48 49 59 87 98
EOF